p edge 75 833
e 1 2
e 1 8
e 1 18
e 1 20
e 1 21
e 1 22
e 1 23
e 1 32
e 1 34
e 1 36
e 1 37
e 1 39
e 1 40
e 1 44
e 1 45
e 1 48
e 1 49
e 1 50
e 1 51
e 1 52
e 1 57
e 1 59
e 1 60
e 1 62
e 1 63
e 1 66
e 1 69
e 1 74
e 1 75
e 2 11
e 2 13
e 2 14
e 2 16
e 2 17
e 2 19
e 2 20
e 2 22
e 2 26
e 2 31
e 2 32
e 2 33
e 2 34
e 2 36
e 2 38
e 2 39
e 2 41
e 2 42
e 2 54
e 2 56
e 2 57
e 2 60
e 2 64
e 2 69
e 2 70
e 2 74
e 3 4
e 3 10
e 3 14
e 3 15
e 3 16
e 3 17
e 3 18
e 3 19
e 3 21
e 3 22
e 3 23
e 3 25
e 3 28
e 3 29
e 3 35
e 3 40
e 3 51
e 3 53
e 3 56
e 3 57
e 3 65
e 3 69
e 3 70
e 3 72
e 3 74
e 4 8
e 4 15
e 4 20
e 4 24
e 4 26
e 4 30
e 4 38
e 4 39
e 4 43
e 4 51
e 4 56
e 4 57
e 4 59
e 4 68
e 4 70
e 4 71
e 4 72
e 4 74
e 5 6
e 5 11
e 5 20
e 5 24
e 5 25
e 5 26
e 5 28
e 5 33
e 5 35
e 5 37
e 5 43
e 5 44
e 5 46
e 5 48
e 5 51
e 5 56
e 5 58
e 5 62
e 5 64
e 5 70
e 5 72
e 5 73
e 5 74
e 6 8
e 6 9
e 6 11
e 6 14
e 6 21
e 6 29
e 6 31
e 6 33
e 6 34
e 6 37
e 6 38
e 6 39
e 6 42
e 6 44
e 6 48
e 6 49
e 6 55
e 6 56
e 6 62
e 6 63
e 7 12
e 7 15
e 7 18
e 7 22
e 7 23
e 7 31
e 7 35
e 7 36
e 7 37
e 7 42
e 7 46
e 7 47
e 7 48
e 7 52
e 7 56
e 7 61
e 7 65
e 7 68
e 7 71
e 7 75
e 8 10
e 8 12
e 8 17
e 8 18
e 8 22
e 8 23
e 8 25
e 8 29
e 8 30
e 8 31
e 8 34
e 8 39
e 8 43
e 8 44
e 8 61
e 8 62
e 8 63
e 8 64
e 8 65
e 8 69
e 9 11
e 9 13
e 9 24
e 9 27
e 9 31
e 9 34
e 9 35
e 9 37
e 9 40
e 9 43
e 9 44
e 9 45
e 9 50
e 9 62
e 9 67
e 9 70
e 9 72
e 10 17
e 10 21
e 10 23
e 10 28
e 10 31
e 10 32
e 10 33
e 10 37
e 10 38
e 10 39
e 10 42
e 10 44
e 10 45
e 10 47
e 10 49
e 10 50
e 10 56
e 10 65
e 10 66
e 10 73
e 11 19
e 11 22
e 11 24
e 11 29
e 11 32
e 11 37
e 11 40
e 11 41
e 11 43
e 11 47
e 11 49
e 11 51
e 11 57
e 11 62
e 11 65
e 11 73
e 11 74
e 12 16
e 12 19
e 12 24
e 12 28
e 12 29
e 12 37
e 12 43
e 12 44
e 12 47
e 12 55
e 12 62
e 12 65
e 12 70
e 12 71
e 12 73
e 12 74
e 13 21
e 13 22
e 13 28
e 13 29
e 13 30
e 13 34
e 13 38
e 13 42
e 13 44
e 13 45
e 13 52
e 13 61
e 13 68
e 13 70
e 13 71
e 13 74
e 14 19
e 14 20
e 14 23
e 14 30
e 14 33
e 14 34
e 14 36
e 14 44
e 14 46
e 14 49
e 14 52
e 14 61
e 14 62
e 14 67
e 14 68
e 14 75
e 15 22
e 15 23
e 15 26
e 15 29
e 15 32
e 15 39
e 15 43
e 15 45
e 15 52
e 15 55
e 15 63
e 15 70
e 15 74
e 16 23
e 16 24
e 16 25
e 16 26
e 16 27
e 16 29
e 16 31
e 16 32
e 16 33
e 16 38
e 16 47
e 16 64
e 16 68
e 16 69
e 17 18
e 17 19
e 17 20
e 17 24
e 17 26
e 17 32
e 17 33
e 17 39
e 17 46
e 17 47
e 17 48
e 17 54
e 17 55
e 17 56
e 17 57
e 17 59
e 17 60
e 17 63
e 17 67
e 17 71
e 17 73
e 18 20
e 18 23
e 18 25
e 18 26
e 18 28
e 18 29
e 18 31
e 18 36
e 18 38
e 18 39
e 18 41
e 18 46
e 18 50
e 18 51
e 18 53
e 18 57
e 18 59
e 19 25
e 19 27
e 19 32
e 19 38
e 19 39
e 19 42
e 19 43
e 19 44
e 19 45
e 19 49
e 19 51
e 19 58
e 19 59
e 19 66
e 19 69
e 19 70
e 19 72
e 20 26
e 20 28
e 20 33
e 20 37
e 20 40
e 20 42
e 20 43
e 20 45
e 20 47
e 20 51
e 20 57
e 20 61
e 20 63
e 20 69
e 20 72
e 20 74
e 21 24
e 21 27
e 21 33
e 21 34
e 21 42
e 21 45
e 21 46
e 21 53
e 21 59
e 21 60
e 21 63
e 21 69
e 21 71
e 21 73
e 21 75
e 22 23
e 22 30
e 22 32
e 22 33
e 22 35
e 22 36
e 22 40
e 22 41
e 22 44
e 22 50
e 22 52
e 22 53
e 22 59
e 22 60
e 22 61
e 22 63
e 22 65
e 22 66
e 22 67
e 22 69
e 22 71
e 22 75
e 23 24
e 23 25
e 23 27
e 23 30
e 23 34
e 23 36
e 23 38
e 23 41
e 23 43
e 23 50
e 23 53
e 23 54
e 23 55
e 23 56
e 23 57
e 23 58
e 23 60
e 23 63
e 23 64
e 23 67
e 23 69
e 23 73
e 24 25
e 24 26
e 24 35
e 24 38
e 24 39
e 24 44
e 24 48
e 24 49
e 24 50
e 24 57
e 24 60
e 24 63
e 24 64
e 24 65
e 24 66
e 24 67
e 24 71
e 24 72
e 25 28
e 25 34
e 25 35
e 25 41
e 25 53
e 25 55
e 25 57
e 25 64
e 25 66
e 25 73
e 25 74
e 26 30
e 26 31
e 26 32
e 26 33
e 26 35
e 26 38
e 26 41
e 26 44
e 26 47
e 26 52
e 26 60
e 26 63
e 26 64
e 26 67
e 26 70
e 26 71
e 26 72
e 26 73
e 26 74
e 27 28
e 27 30
e 27 36
e 27 45
e 27 46
e 27 47
e 27 49
e 27 51
e 27 52
e 27 54
e 27 56
e 27 57
e 27 60
e 27 61
e 27 64
e 27 66
e 27 72
e 27 73
e 28 40
e 28 48
e 28 49
e 28 53
e 28 58
e 28 59
e 28 61
e 28 62
e 28 65
e 28 67
e 28 69
e 28 72
e 29 33
e 29 37
e 29 39
e 29 45
e 29 59
e 30 33
e 30 34
e 30 37
e 30 42
e 30 46
e 30 51
e 30 54
e 30 56
e 30 59
e 30 61
e 30 62
e 30 63
e 30 70
e 30 71
e 30 73
e 30 74
e 30 75
e 31 33
e 31 35
e 31 38
e 31 40
e 31 46
e 31 49
e 31 54
e 31 58
e 31 59
e 31 65
e 31 70
e 31 71
e 31 72
e 31 74
e 32 35
e 32 42
e 32 44
e 32 45
e 32 49
e 32 51
e 32 53
e 32 54
e 32 57
e 32 63
e 32 65
e 32 66
e 32 70
e 32 75
e 33 52
e 33 53
e 33 56
e 33 60
e 33 65
e 33 66
e 33 70
e 33 71
e 33 73
e 33 74
e 34 35
e 34 38
e 34 40
e 34 41
e 34 44
e 34 47
e 34 48
e 34 49
e 34 53
e 34 55
e 34 58
e 34 59
e 34 62
e 34 64
e 35 36
e 35 38
e 35 47
e 35 48
e 35 52
e 35 53
e 35 58
e 35 61
e 35 63
e 35 64
e 35 67
e 36 37
e 36 46
e 36 48
e 36 52
e 36 54
e 36 55
e 36 59
e 36 61
e 36 67
e 36 70
e 36 71
e 36 75
e 37 39
e 37 44
e 37 46
e 37 48
e 37 49
e 37 50
e 37 51
e 37 55
e 37 57
e 37 59
e 37 60
e 37 67
e 37 69
e 37 74
e 38 47
e 38 50
e 38 51
e 38 54
e 38 58
e 38 59
e 38 64
e 38 67
e 38 68
e 38 69
e 38 71
e 39 44
e 39 48
e 39 49
e 39 54
e 39 55
e 39 57
e 39 60
e 39 64
e 39 70
e 39 75
e 40 44
e 40 45
e 40 46
e 40 49
e 40 54
e 40 55
e 40 58
e 40 63
e 40 65
e 40 67
e 40 70
e 40 72
e 41 44
e 41 45
e 41 48
e 41 55
e 41 68
e 41 71
e 42 44
e 42 49
e 42 58
e 42 60
e 42 63
e 42 66
e 43 44
e 43 50
e 43 56
e 43 58
e 43 59
e 43 64
e 43 65
e 43 68
e 43 70
e 44 50
e 44 51
e 44 54
e 44 58
e 44 61
e 44 63
e 44 64
e 44 66
e 44 73
e 45 48
e 45 50
e 45 51
e 45 54
e 45 57
e 45 60
e 45 61
e 45 62
e 45 63
e 45 64
e 45 69
e 45 71
e 45 74
e 46 47
e 46 48
e 46 50
e 46 51
e 46 52
e 46 53
e 46 61
e 46 66
e 46 70
e 46 75
e 47 50
e 47 51
e 47 52
e 47 54
e 47 55
e 47 58
e 47 60
e 47 62
e 47 72
e 47 74
e 48 49
e 48 50
e 48 52
e 48 55
e 48 59
e 48 61
e 48 66
e 48 68
e 48 69
e 48 71
e 49 53
e 49 55
e 50 57
e 50 58
e 50 61
e 50 64
e 50 68
e 50 69
e 51 53
e 51 54
e 51 55
e 51 56
e 51 57
e 51 58
e 51 60
e 51 63
e 51 64
e 51 66
e 51 72
e 51 74
e 52 54
e 52 59
e 52 61
e 52 64
e 52 72
e 52 75
e 53 56
e 53 61
e 53 71
e 54 55
e 54 60
e 54 64
e 54 65
e 54 74
e 54 75
e 55 56
e 55 63
e 55 64
e 55 66
e 55 68
e 56 57
e 56 59
e 56 62
e 56 68
e 56 70
e 56 74
e 57 65
e 57 72
e 58 59
e 58 60
e 58 63
e 58 66
e 58 68
e 58 69
e 58 72
e 58 73
e 59 60
e 59 65
e 59 67
e 59 68
e 59 71
e 59 74
e 60 66
e 60 67
e 60 69
e 60 70
e 60 71
e 60 72
e 61 63
e 61 66
e 61 67
e 61 69
e 61 71
e 61 72
e 62 65
e 62 66
e 62 68
e 62 73
e 63 66
e 63 67
e 64 68
e 64 72
e 64 74
e 64 75
e 65 68
e 65 70
e 65 72
e 66 69
e 66 70
e 66 75
e 67 74
e 67 75
e 68 72
e 68 74
e 69 71
e 70 71
e 70 72
e 72 74
